c This is a CNF SAT formula in the DIMACS CNF format,
c produced with the bc2cnf translator by Tommi Junttila;
c see http://users.ics.aalto.fi/tjunttil/circuits/index.html
c Z <-> 2
c S7 <-> 3
c C7 <-> 4
c CIN7 <-> 4
c P6 <-> 6
c G6 <-> 7
c C6 <-> 8
c CIN6 <-> 8
c P5 <-> 10
c G5 <-> 11
c C5 <-> 12
c CIN5 <-> 12
c P4 <-> 14
c G4 <-> 15
c C4 <-> 16
c CIN4 <-> 16
c P3 <-> 18
c G3 <-> 19
c C3 <-> 20
c CIN3 <-> 20
c P2 <-> 22
c G2 <-> 23
c C2 <-> 24
c CIN2 <-> 24
c P1 <-> 26
c G1 <-> 27
c C1 <-> 28
c CIN1 <-> 28
c P0 <-> 30
c G0 <-> 31
c S7_OPTIMIZED <-> 32
c P7 <-> 33
c G7 <-> 34
c A7 <-> 35
c A6 <-> 36
c A5 <-> 37
c A4 <-> 38
c A3 <-> 39
c A2 <-> 40
c A1 <-> 41
c A0 <-> 42
c XB7 <-> 43
c B7 <-> 44
c XB6 <-> 45
c B6 <-> 46
c XB5 <-> 47
c B5 <-> 48
c XB4 <-> 49
c B4 <-> 50
c XB3 <-> 51
c B3 <-> 52
c XB2 <-> 53
c B2 <-> 54
c XB1 <-> 55
c B1 <-> 56
c XB0 <-> 57
c CIN0 <-> 58
c C0 <-> 58
c OP0 <-> 58
c B0 <-> 59
p cnf 59 147
1 35 -4 0
1 -35 4 0
-1 35 4 0
-1 -35 -4 0
2 32 -3 0
2 -32 3 0
-2 32 3 0
-2 -32 -3 0
2 0
3 43 -1 0
3 -43 1 0
-3 43 1 0
-3 -43 -1 0
4 -5 0
4 -7 0
-4 7 5 0
-5 6 0
-5 8 0
5 -8 -6 0
6 45 -36 0
6 -45 36 0
-6 45 36 0
-6 -45 -36 0
-7 36 0
-7 45 0
7 -45 -36 0
8 -9 0
8 -11 0
-8 11 9 0
-9 10 0
-9 12 0
9 -12 -10 0
10 47 -37 0
10 -47 37 0
-10 47 37 0
-10 -47 -37 0
-11 37 0
-11 47 0
11 -47 -37 0
12 -13 0
12 -15 0
-12 15 13 0
-13 14 0
-13 16 0
13 -16 -14 0
14 49 -38 0
14 -49 38 0
-14 49 38 0
-14 -49 -38 0
-15 38 0
-15 49 0
15 -49 -38 0
16 -17 0
16 -19 0
-16 19 17 0
-17 18 0
-17 20 0
17 -20 -18 0
18 51 -39 0
18 -51 39 0
-18 51 39 0
-18 -51 -39 0
-19 39 0
-19 51 0
19 -51 -39 0
20 -21 0
20 -23 0
-20 23 21 0
-21 22 0
-21 24 0
21 -24 -22 0
22 53 -40 0
22 -53 40 0
-22 53 40 0
-22 -53 -40 0
-23 40 0
-23 53 0
23 -53 -40 0
24 -25 0
24 -27 0
-24 27 25 0
-25 26 0
-25 28 0
25 -28 -26 0
26 55 -41 0
26 -55 41 0
-26 55 41 0
-26 -55 -41 0
-27 41 0
-27 55 0
27 -55 -41 0
28 -29 0
28 -31 0
-28 31 29 0
-29 30 0
-29 58 0
29 -58 -30 0
30 57 -42 0
30 -57 42 0
-30 57 42 0
-30 -57 -42 0
-31 42 0
-31 57 0
31 -57 -42 0
32 33 -4 0
32 -33 4 0
-32 33 4 0
-32 -33 -4 0
33 43 -35 0
33 -43 35 0
-33 43 35 0
-33 -43 -35 0
-34 35 0
-34 43 0
34 -43 -35 0
43 58 -44 0
43 -58 44 0
-43 58 44 0
-43 -58 -44 0
45 58 -46 0
45 -58 46 0
-45 58 46 0
-45 -58 -46 0
47 58 -48 0
47 -58 48 0
-47 58 48 0
-47 -58 -48 0
49 58 -50 0
49 -58 50 0
-49 58 50 0
-49 -58 -50 0
51 58 -52 0
51 -58 52 0
-51 58 52 0
-51 -58 -52 0
53 58 -54 0
53 -58 54 0
-53 58 54 0
-53 -58 -54 0
55 58 -56 0
55 -58 56 0
-55 58 56 0
-55 -58 -56 0
57 59 -58 0
57 -59 58 0
-57 59 58 0
-57 -59 -58 0